p cnf 256 1
256 0
w 1 0.426535
w 2 1 0
w 2 -1 1
w 3 2 0.129171
w 3 -2 0.185902
w 4 3 1
w 4 -3 0
w 5 4 0.207104
w 5 -4 0.119599
w 6 5 0.459387
w 6 -5 0.661646
w 7 6 0
w 7 -6 1
w 8 7 1
w 8 -7 0
w 9 8 0.0165108
w 9 -8 0.529724
w 10 9 0.487163
w 10 -9 0.315394
w 11 10 0.79548
w 11 -10 0.413371
w 12 11 1
w 12 -11 0
w 13 12 0.777427
w 13 -12 0.83553
w 14 13 1
w 14 -13 0
w 15 14 1
w 15 -14 0
w 16 15 0.745947
w 16 -15 0.640269
w 17 1 0.953051
w 17 -1 0.759869
w 18 17 2 0.412438
w 18 17 -2 0.421515
w 18 -17 2 0.695131
w 18 -17 -2 0.340865
w 19 18 3 0.67999
w 19 18 -3 0.0848738
w 19 -18 3 0.656815
w 19 -18 -3 0.209715
w 20 19 4 0.143978
w 20 19 -4 0.525109
w 20 -19 4 0.819614
w 20 -19 -4 0.939458
w 21 20 5 0.115511
w 21 20 -5 0.348454
w 21 -20 5 0.916753
w 21 -20 -5 0.892938
w 22 21 6 0
w 22 21 -6 0
w 22 -21 6 0
w 22 -21 -6 1
w 23 22 7 0.302813
w 23 22 -7 0.416441
w 23 -22 7 0.300574
w 23 -22 -7 0.255863
w 24 23 8 0
w 24 23 -8 1
w 24 -23 8 1
w 24 -23 -8 1
w 25 24 9 1
w 25 24 -9 0
w 25 -24 9 1
w 25 -24 -9 1
w 26 25 10 0.0389217
w 26 25 -10 0.0768232
w 26 -25 10 0.808319
w 26 -25 -10 0.97838
w 27 26 11 1
w 27 26 -11 1
w 27 -26 11 0
w 27 -26 -11 0
w 28 27 12 0.213933
w 28 27 -12 0.442064
w 28 -27 12 0.067684
w 28 -27 -12 0.990104
w 29 28 13 0.370497
w 29 28 -13 0.406546
w 29 -28 13 0.286195
w 29 -28 -13 0.62636
w 30 29 14 0.253073
w 30 29 -14 0.294661
w 30 -29 14 0.18068
w 30 -29 -14 0.915082
w 31 30 15 1
w 31 30 -15 0
w 31 -30 15 0
w 31 -30 -15 0
w 32 31 16 0.386574
w 32 31 -16 0.352674
w 32 -31 16 0.885618
w 32 -31 -16 0.194893
w 33 17 1
w 33 -17 0
w 34 33 18 0
w 34 33 -18 1
w 34 -33 18 0
w 34 -33 -18 0
w 35 34 19 1
w 35 34 -19 1
w 35 -34 19 0
w 35 -34 -19 1
w 36 35 20 0.44356
w 36 35 -20 0.649371
w 36 -35 20 0.233246
w 36 -35 -20 0.0264156
w 37 36 21 0.527907
w 37 36 -21 0.207096
w 37 -36 21 0.817525
w 37 -36 -21 0.831735
w 38 37 22 0.0746062
w 38 37 -22 0.229603
w 38 -37 22 0.939657
w 38 -37 -22 0.883401
w 39 38 23 0.292331
w 39 38 -23 0.76902
w 39 -38 23 0.81107
w 39 -38 -23 0.623384
w 40 39 24 0.929793
w 40 39 -24 0.281272
w 40 -39 24 0.502919
w 40 -39 -24 0.865283
w 41 40 25 1
w 41 40 -25 0
w 41 -40 25 1
w 41 -40 -25 1
w 42 41 26 0.293253
w 42 41 -26 0.0304041
w 42 -41 26 0.255385
w 42 -41 -26 0.526499
w 43 42 27 1
w 43 42 -27 0
w 43 -42 27 0
w 43 -42 -27 1
w 44 43 28 0.88982
w 44 43 -28 0.0499603
w 44 -43 28 0.115745
w 44 -43 -28 0.829477
w 45 44 29 0.731922
w 45 44 -29 0.121808
w 45 -44 29 0.702381
w 45 -44 -29 0.542992
w 46 45 30 0.372323
w 46 45 -30 0.472784
w 46 -45 30 0.026464
w 46 -45 -30 0.875242
w 47 46 31 1
w 47 46 -31 0
w 47 -46 31 1
w 47 -46 -31 0
w 48 47 32 0
w 48 47 -32 0
w 48 -47 32 1
w 48 -47 -32 0
w 49 33 0.0991391
w 49 -33 0.600134
w 50 49 34 1
w 50 49 -34 0
w 50 -49 34 0
w 50 -49 -34 1
w 51 50 35 0.0388539
w 51 50 -35 0.0823515
w 51 -50 35 0.55881
w 51 -50 -35 0.770776
w 52 51 36 0
w 52 51 -36 0
w 52 -51 36 1
w 52 -51 -36 1
w 53 52 37 0.975815
w 53 52 -37 0.508757
w 53 -52 37 0.12462
w 53 -52 -37 0.452257
w 54 53 38 0.705526
w 54 53 -38 0.615065
w 54 -53 38 0.945743
w 54 -53 -38 0.892446
w 55 54 39 0
w 55 54 -39 1
w 55 -54 39 1
w 55 -54 -39 1
w 56 55 40 0
w 56 55 -40 1
w 56 -55 40 0
w 56 -55 -40 0
w 57 56 41 0
w 57 56 -41 1
w 57 -56 41 1
w 57 -56 -41 1
w 58 57 42 0.137161
w 58 57 -42 0.938992
w 58 -57 42 0.58934
w 58 -57 -42 0.923713
w 59 58 43 0.0980968
w 59 58 -43 0.0483333
w 59 -58 43 0.367064
w 59 -58 -43 0.0319248
w 60 59 44 0.982129
w 60 59 -44 0.977668
w 60 -59 44 0.646306
w 60 -59 -44 0.0532554
w 61 60 45 0.981058
w 61 60 -45 0.106942
w 61 -60 45 0.052932
w 61 -60 -45 0.915944
w 62 61 46 1
w 62 61 -46 0
w 62 -61 46 1
w 62 -61 -46 1
w 63 62 47 0.263975
w 63 62 -47 0.991801
w 63 -62 47 0.256775
w 63 -62 -47 0.0873675
w 64 63 48 0.2126
w 64 63 -48 0.224528
w 64 -63 48 0.920434
w 64 -63 -48 0.80194
w 65 49 1
w 65 -49 0
w 66 65 50 0.196574
w 66 65 -50 0.202306
w 66 -65 50 0.931962
w 66 -65 -50 0.950434
w 67 66 51 1
w 67 66 -51 1
w 67 -66 51 0
w 67 -66 -51 0
w 68 67 52 0.344633
w 68 67 -52 0.928292
w 68 -67 52 0.493741
w 68 -67 -52 0.542229
w 69 68 53 0
w 69 68 -53 1
w 69 -68 53 0
w 69 -68 -53 1
w 70 69 54 1
w 70 69 -54 0
w 70 -69 54 0
w 70 -69 -54 0
w 71 70 55 1
w 71 70 -55 0
w 71 -70 55 0
w 71 -70 -55 0
w 72 71 56 0.569024
w 72 71 -56 0.585515
w 72 -71 56 0.624707
w 72 -71 -56 0.753459
w 73 72 57 0
w 73 72 -57 1
w 73 -72 57 0
w 73 -72 -57 1
w 74 73 58 0
w 74 73 -58 1
w 74 -73 58 0
w 74 -73 -58 1
w 75 74 59 1
w 75 74 -59 1
w 75 -74 59 1
w 75 -74 -59 0
w 76 75 60 0.43422
w 76 75 -60 0.754089
w 76 -75 60 0.608719
w 76 -75 -60 0.385795
w 77 76 61 0
w 77 76 -61 0
w 77 -76 61 0
w 77 -76 -61 1
w 78 77 62 0
w 78 77 -62 0
w 78 -77 62 1
w 78 -77 -62 0
w 79 78 63 1
w 79 78 -63 0
w 79 -78 63 1
w 79 -78 -63 1
w 80 79 64 0.173899
w 80 79 -64 0.0343398
w 80 -79 64 0.273103
w 80 -79 -64 0.386942
w 81 65 0.64118
w 81 -65 0.0821868
w 82 81 66 1
w 82 81 -66 0
w 82 -81 66 1
w 82 -81 -66 1
w 83 82 67 1
w 83 82 -67 0
w 83 -82 67 1
w 83 -82 -67 0
w 84 83 68 0.949497
w 84 83 -68 0.970624
w 84 -83 68 0.212756
w 84 -83 -68 0.809722
w 85 84 69 0.0862794
w 85 84 -69 0.891392
w 85 -84 69 0.620569
w 85 -84 -69 0.330308
w 86 85 70 0.776899
w 86 85 -70 0.873133
w 86 -85 70 0.946205
w 86 -85 -70 0.811238
w 87 86 71 1
w 87 86 -71 0
w 87 -86 71 0
w 87 -86 -71 1
w 88 87 72 0.426273
w 88 87 -72 0.931741
w 88 -87 72 0.861459
w 88 -87 -72 0.673849
w 89 88 73 0.0141926
w 89 88 -73 0.0616204
w 89 -88 73 0.875456
w 89 -88 -73 0.728171
w 90 89 74 0.709834
w 90 89 -74 0.677668
w 90 -89 74 0.926931
w 90 -89 -74 0.92259
w 91 90 75 0
w 91 90 -75 1
w 91 -90 75 0
w 91 -90 -75 0
w 92 91 76 0
w 92 91 -76 0
w 92 -91 76 0
w 92 -91 -76 1
w 93 92 77 0.358546
w 93 92 -77 0.430441
w 93 -92 77 0.412835
w 93 -92 -77 0.145962
w 94 93 78 0.205108
w 94 93 -78 0.572234
w 94 -93 78 0.777517
w 94 -93 -78 0.0665668
w 95 94 79 1
w 95 94 -79 0
w 95 -94 79 0
w 95 -94 -79 1
w 96 95 80 0.26401
w 96 95 -80 0.19675
w 96 -95 80 0.486599
w 96 -95 -80 0.190941
w 97 81 0
w 97 -81 1
w 98 97 82 0.128209
w 98 97 -82 0.35277
w 98 -97 82 0.265416
w 98 -97 -82 0.467386
w 99 98 83 0.389837
w 99 98 -83 0.679695
w 99 -98 83 0.601153
w 99 -98 -83 0.325496
w 100 99 84 0
w 100 99 -84 1
w 100 -99 84 1
w 100 -99 -84 1
w 101 100 85 0.756437
w 101 100 -85 0.654886
w 101 -100 85 0.0100046
w 101 -100 -85 0.00252045
w 102 101 86 0
w 102 101 -86 0
w 102 -101 86 1
w 102 -101 -86 0
w 103 102 87 0.950011
w 103 102 -87 0.386294
w 103 -102 87 0.765175
w 103 -102 -87 0.069351
w 104 103 88 0
w 104 103 -88 0
w 104 -103 88 1
w 104 -103 -88 1
w 105 104 89 0.216911
w 105 104 -89 0.338321
w 105 -104 89 0.344641
w 105 -104 -89 0.818064
w 106 105 90 0.382882
w 106 105 -90 0.849658
w 106 -105 90 0.402147
w 106 -105 -90 0.567085
w 107 106 91 0.345585
w 107 106 -91 0.323522
w 107 -106 91 0.381913
w 107 -106 -91 0.355589
w 108 107 92 0
w 108 107 -92 1
w 108 -107 92 0
w 108 -107 -92 1
w 109 108 93 1
w 109 108 -93 1
w 109 -108 93 0
w 109 -108 -93 0
w 110 109 94 1
w 110 109 -94 0
w 110 -109 94 0
w 110 -109 -94 1
w 111 110 95 0.283388
w 111 110 -95 0.0225871
w 111 -110 95 0.945549
w 111 -110 -95 0.62803
w 112 111 96 0.609366
w 112 111 -96 0.0109119
w 112 -111 96 0.690309
w 112 -111 -96 0.0115128
w 113 97 0.417336
w 113 -97 0.357097
w 114 113 98 0.79925
w 114 113 -98 0.712687
w 114 -113 98 0.227563
w 114 -113 -98 0.447509
w 115 114 99 1
w 115 114 -99 1
w 115 -114 99 0
w 115 -114 -99 0
w 116 115 100 1
w 116 115 -100 0
w 116 -115 100 1
w 116 -115 -100 0
w 117 116 101 0.239886
w 117 116 -101 0.135728
w 117 -116 101 0.315979
w 117 -116 -101 0.523275
w 118 117 102 0
w 118 117 -102 1
w 118 -117 102 1
w 118 -117 -102 0
w 119 118 103 1
w 119 118 -103 1
w 119 -118 103 0
w 119 -118 -103 1
w 120 119 104 1
w 120 119 -104 1
w 120 -119 104 1
w 120 -119 -104 0
w 121 120 105 0
w 121 120 -105 1
w 121 -120 105 1
w 121 -120 -105 0
w 122 121 106 0.40296
w 122 121 -106 0.853748
w 122 -121 106 0.857462
w 122 -121 -106 0.0244038
w 123 122 107 1
w 123 122 -107 0
w 123 -122 107 1
w 123 -122 -107 1
w 124 123 108 0.477845
w 124 123 -108 0.143721
w 124 -123 108 0.93887
w 124 -123 -108 0.476812
w 125 124 109 1
w 125 124 -109 1
w 125 -124 109 1
w 125 -124 -109 0
w 126 125 110 0
w 126 125 -110 1
w 126 -125 110 0
w 126 -125 -110 1
w 127 126 111 1
w 127 126 -111 1
w 127 -126 111 0
w 127 -126 -111 0
w 128 127 112 0.89291
w 128 127 -112 0.13729
w 128 -127 112 0.670018
w 128 -127 -112 0.750372
w 129 113 1
w 129 -113 0
w 130 129 114 1
w 130 129 -114 1
w 130 -129 114 1
w 130 -129 -114 0
w 131 130 115 0.342498
w 131 130 -115 0.152419
w 131 -130 115 0.128005
w 131 -130 -115 0.357113
w 132 131 116 0
w 132 131 -116 0
w 132 -131 116 1
w 132 -131 -116 0
w 133 132 117 0.745352
w 133 132 -117 0.479382
w 133 -132 117 0.930167
w 133 -132 -117 0.277283
w 134 133 118 0.0156209
w 134 133 -118 0.011613
w 134 -133 118 0.495602
w 134 -133 -118 0.908531
w 135 134 119 1
w 135 134 -119 0
w 135 -134 119 0
w 135 -134 -119 0
w 136 135 120 0.736582
w 136 135 -120 0.192787
w 136 -135 120 0.174266
w 136 -135 -120 0.950131
w 137 136 121 0.516764
w 137 136 -121 0.10255
w 137 -136 121 0.971985
w 137 -136 -121 0.873878
w 138 137 122 0
w 138 137 -122 1
w 138 -137 122 0
w 138 -137 -122 0
w 139 138 123 1
w 139 138 -123 1
w 139 -138 123 0
w 139 -138 -123 1
w 140 139 124 0.974486
w 140 139 -124 0.867117
w 140 -139 124 0.172994
w 140 -139 -124 0.883017
w 141 140 125 0
w 141 140 -125 1
w 141 -140 125 1
w 141 -140 -125 1
w 142 141 126 1
w 142 141 -126 1
w 142 -141 126 1
w 142 -141 -126 0
w 143 142 127 1
w 143 142 -127 0
w 143 -142 127 0
w 143 -142 -127 1
w 144 143 128 0.210332
w 144 143 -128 0.922798
w 144 -143 128 0.465752
w 144 -143 -128 0.729009
w 145 129 0.0439729
w 145 -129 0.727068
w 146 145 130 0.899476
w 146 145 -130 0.404461
w 146 -145 130 0.884848
w 146 -145 -130 0.766593
w 147 146 131 0.767865
w 147 146 -131 0.782613
w 147 -146 131 0.916069
w 147 -146 -131 0.309786
w 148 147 132 1
w 148 147 -132 0
w 148 -147 132 0
w 148 -147 -132 0
w 149 148 133 0.18576
w 149 148 -133 0.219781
w 149 -148 133 0.727312
w 149 -148 -133 0.301641
w 150 149 134 0.80963
w 150 149 -134 0.773578
w 150 -149 134 0.219471
w 150 -149 -134 0.0199618
w 151 150 135 0.685223
w 151 150 -135 0.748971
w 151 -150 135 0.647872
w 151 -150 -135 0.729196
w 152 151 136 1
w 152 151 -136 1
w 152 -151 136 0
w 152 -151 -136 0
w 153 152 137 1
w 153 152 -137 1
w 153 -152 137 1
w 153 -152 -137 0
w 154 153 138 1
w 154 153 -138 1
w 154 -153 138 0
w 154 -153 -138 1
w 155 154 139 0.692887
w 155 154 -139 0.594111
w 155 -154 139 0.946939
w 155 -154 -139 0.279474
w 156 155 140 0
w 156 155 -140 1
w 156 -155 140 0
w 156 -155 -140 0
w 157 156 141 1
w 157 156 -141 1
w 157 -156 141 0
w 157 -156 -141 0
w 158 157 142 0.542035
w 158 157 -142 0.529212
w 158 -157 142 0.0660792
w 158 -157 -142 0.9373
w 159 158 143 0.277026
w 159 158 -143 0.115178
w 159 -158 143 0.361189
w 159 -158 -143 0.797758
w 160 159 144 1
w 160 159 -144 1
w 160 -159 144 0
w 160 -159 -144 0
w 161 145 0
w 161 -145 1
w 162 161 146 1
w 162 161 -146 0
w 162 -161 146 1
w 162 -161 -146 0
w 163 162 147 0
w 163 162 -147 0
w 163 -162 147 1
w 163 -162 -147 0
w 164 163 148 0.656236
w 164 163 -148 0.0512743
w 164 -163 148 0.255426
w 164 -163 -148 0.279234
w 165 164 149 0.784639
w 165 164 -149 0.345313
w 165 -164 149 0.53061
w 165 -164 -149 0.771805
w 166 165 150 0.645788
w 166 165 -150 0.132994
w 166 -165 150 0.420097
w 166 -165 -150 0.0480745
w 167 166 151 1
w 167 166 -151 0
w 167 -166 151 0
w 167 -166 -151 0
w 168 167 152 0.184864
w 168 167 -152 0.871082
w 168 -167 152 0.254892
w 168 -167 -152 0.195201
w 169 168 153 0
w 169 168 -153 1
w 169 -168 153 0
w 169 -168 -153 0
w 170 169 154 0
w 170 169 -154 0
w 170 -169 154 1
w 170 -169 -154 0
w 171 170 155 1
w 171 170 -155 1
w 171 -170 155 1
w 171 -170 -155 0
w 172 171 156 1
w 172 171 -156 1
w 172 -171 156 0
w 172 -171 -156 1
w 173 172 157 1
w 173 172 -157 1
w 173 -172 157 1
w 173 -172 -157 0
w 174 173 158 1
w 174 173 -158 0
w 174 -173 158 0
w 174 -173 -158 1
w 175 174 159 0
w 175 174 -159 1
w 175 -174 159 0
w 175 -174 -159 0
w 176 175 160 0
w 176 175 -160 0
w 176 -175 160 0
w 176 -175 -160 1
w 177 161 1
w 177 -161 0
w 178 177 162 0
w 178 177 -162 0
w 178 -177 162 1
w 178 -177 -162 1
w 179 178 163 0
w 179 178 -163 1
w 179 -178 163 1
w 179 -178 -163 1
w 180 179 164 0.0114129
w 180 179 -164 0.519928
w 180 -179 164 0.364771
w 180 -179 -164 0.300676
w 181 180 165 0.367669
w 181 180 -165 0.785139
w 181 -180 165 0.392798
w 181 -180 -165 0.579203
w 182 181 166 0.489195
w 182 181 -166 0.137283
w 182 -181 166 0.248503
w 182 -181 -166 0.87896
w 183 182 167 1
w 183 182 -167 1
w 183 -182 167 0
w 183 -182 -167 0
w 184 183 168 0.508988
w 184 183 -168 0.371489
w 184 -183 168 0.142139
w 184 -183 -168 0.145289
w 185 184 169 0.523021
w 185 184 -169 0.997193
w 185 -184 169 0.386044
w 185 -184 -169 0.430035
w 186 185 170 0.00280866
w 186 185 -170 0.441448
w 186 -185 170 0.494527
w 186 -185 -170 0.36758
w 187 186 171 0.42806
w 187 186 -171 0.735249
w 187 -186 171 0.527263
w 187 -186 -171 0.820859
w 188 187 172 0
w 188 187 -172 1
w 188 -187 172 0
w 188 -187 -172 1
w 189 188 173 1
w 189 188 -173 0
w 189 -188 173 1
w 189 -188 -173 1
w 190 189 174 0.0941236
w 190 189 -174 0.342247
w 190 -189 174 0.894085
w 190 -189 -174 0.239413
w 191 190 175 1
w 191 190 -175 0
w 191 -190 175 0
w 191 -190 -175 0
w 192 191 176 0
w 192 191 -176 1
w 192 -191 176 0
w 192 -191 -176 0
w 193 177 0
w 193 -177 1
w 194 193 178 0.557975
w 194 193 -178 0.954652
w 194 -193 178 0.865573
w 194 -193 -178 0.984082
w 195 194 179 1
w 195 194 -179 1
w 195 -194 179 0
w 195 -194 -179 0
w 196 195 180 0
w 196 195 -180 1
w 196 -195 180 1
w 196 -195 -180 1
w 197 196 181 0.130092
w 197 196 -181 0.7809
w 197 -196 181 0.79529
w 197 -196 -181 0.547198
w 198 197 182 0
w 198 197 -182 1
w 198 -197 182 1
w 198 -197 -182 0
w 199 198 183 0.934443
w 199 198 -183 0.504935
w 199 -198 183 0.713642
w 199 -198 -183 0.0682363
w 200 199 184 0
w 200 199 -184 0
w 200 -199 184 1
w 200 -199 -184 0
w 201 200 185 0
w 201 200 -185 1
w 201 -200 185 1
w 201 -200 -185 0
w 202 201 186 0
w 202 201 -186 1
w 202 -201 186 0
w 202 -201 -186 1
w 203 202 187 0
w 203 202 -187 1
w 203 -202 187 0
w 203 -202 -187 1
w 204 203 188 1
w 204 203 -188 1
w 204 -203 188 1
w 204 -203 -188 0
w 205 204 189 1
w 205 204 -189 1
w 205 -204 189 0
w 205 -204 -189 1
w 206 205 190 0.201197
w 206 205 -190 0.1427
w 206 -205 190 0.674438
w 206 -205 -190 0.456896
w 207 206 191 1
w 207 206 -191 0
w 207 -206 191 1
w 207 -206 -191 0
w 208 207 192 0.396982
w 208 207 -192 0.56307
w 208 -207 192 0.439365
w 208 -207 -192 0.858362
w 209 193 0.906056
w 209 -193 0.449834
w 210 209 194 0.168038
w 210 209 -194 0.588504
w 210 -209 194 0.412424
w 210 -209 -194 0.670791
w 211 210 195 0
w 211 210 -195 1
w 211 -210 195 1
w 211 -210 -195 1
w 212 211 196 0.267031
w 212 211 -196 0.700944
w 212 -211 196 0.312169
w 212 -211 -196 0.468227
w 213 212 197 0.986607
w 213 212 -197 0.925123
w 213 -212 197 0.273938
w 213 -212 -197 0.899983
w 214 213 198 1
w 214 213 -198 0
w 214 -213 198 1
w 214 -213 -198 1
w 215 214 199 1
w 215 214 -199 0
w 215 -214 199 0
w 215 -214 -199 1
w 216 215 200 0
w 216 215 -200 1
w 216 -215 200 1
w 216 -215 -200 1
w 217 216 201 0.596662
w 217 216 -201 0.051792
w 217 -216 201 0.19819
w 217 -216 -201 0.177794
w 218 217 202 0.465221
w 218 217 -202 0.878738
w 218 -217 202 0.923322
w 218 -217 -202 0.933448
w 219 218 203 0.909929
w 219 218 -203 0.858571
w 219 -218 203 0.996321
w 219 -218 -203 0.809912
w 220 219 204 1
w 220 219 -204 1
w 220 -219 204 1
w 220 -219 -204 0
w 221 220 205 0
w 221 220 -205 0
w 221 -220 205 1
w 221 -220 -205 1
w 222 221 206 0
w 222 221 -206 0
w 222 -221 206 1
w 222 -221 -206 0
w 223 222 207 0.735971
w 223 222 -207 0.65116
w 223 -222 207 0.713934
w 223 -222 -207 0.934161
w 224 223 208 0.325087
w 224 223 -208 0.399382
w 224 -223 208 0.707693
w 224 -223 -208 0.24841
w 225 209 0
w 225 -209 1
w 226 225 210 0
w 226 225 -210 0
w 226 -225 210 1
w 226 -225 -210 0
w 227 226 211 0.692686
w 227 226 -211 0.506295
w 227 -226 211 0.152657
w 227 -226 -211 0.894716
w 228 227 212 1
w 228 227 -212 1
w 228 -227 212 0
w 228 -227 -212 1
w 229 228 213 1
w 229 228 -213 0
w 229 -228 213 0
w 229 -228 -213 1
w 230 229 214 0.920477
w 230 229 -214 0.91411
w 230 -229 214 0.819309
w 230 -229 -214 0.749431
w 231 230 215 0
w 231 230 -215 1
w 231 -230 215 0
w 231 -230 -215 1
w 232 231 216 0.645946
w 232 231 -216 0.742922
w 232 -231 216 0.313595
w 232 -231 -216 0.614197
w 233 232 217 0
w 233 232 -217 1
w 233 -232 217 0
w 233 -232 -217 1
w 234 233 218 1
w 234 233 -218 0
w 234 -233 218 1
w 234 -233 -218 0
w 235 234 219 0.643843
w 235 234 -219 0.309212
w 235 -234 219 0.895577
w 235 -234 -219 0.91316
w 236 235 220 0.780725
w 236 235 -220 0.833637
w 236 -235 220 0.423497
w 236 -235 -220 0.600034
w 237 236 221 0.662694
w 237 236 -221 0.818725
w 237 -236 221 0.0401917
w 237 -236 -221 0.150301
w 238 237 222 0
w 238 237 -222 0
w 238 -237 222 0
w 238 -237 -222 1
w 239 238 223 0
w 239 238 -223 1
w 239 -238 223 1
w 239 -238 -223 0
w 240 239 224 0.918925
w 240 239 -224 0.504174
w 240 -239 224 0.229814
w 240 -239 -224 0.34795
w 241 225 0
w 241 -225 1
w 242 241 226 0.584566
w 242 241 -226 0.87179
w 242 -241 226 0.904954
w 242 -241 -226 0.0939533
w 243 242 227 0.73859
w 243 242 -227 0.51745
w 243 -242 227 0.25255
w 243 -242 -227 0.321658
w 244 243 228 0
w 244 243 -228 0
w 244 -243 228 1
w 244 -243 -228 1
w 245 244 229 1
w 245 244 -229 0
w 245 -244 229 0
w 245 -244 -229 1
w 246 245 230 0.953071
w 246 245 -230 0.254462
w 246 -245 230 0.555229
w 246 -245 -230 0.71043
w 247 246 231 0
w 247 246 -231 1
w 247 -246 231 1
w 247 -246 -231 0
w 248 247 232 0.513132
w 248 247 -232 0.919323
w 248 -247 232 0.788248
w 248 -247 -232 0.418085
w 249 248 233 1
w 249 248 -233 1
w 249 -248 233 0
w 249 -248 -233 0
w 250 249 234 0
w 250 249 -234 1
w 250 -249 234 1
w 250 -249 -234 1
w 251 250 235 0
w 251 250 -235 1
w 251 -250 235 0
w 251 -250 -235 0
w 252 251 236 0.51796
w 252 251 -236 0.612722
w 252 -251 236 0.959608
w 252 -251 -236 0.0731897
w 253 252 237 1
w 253 252 -237 1
w 253 -252 237 0
w 253 -252 -237 0
w 254 253 238 0
w 254 253 -238 0
w 254 -253 238 1
w 254 -253 -238 0
w 255 254 239 0.39995
w 255 254 -239 0.408865
w 255 -254 239 0.742227
w 255 -254 -239 0.930677
w 256 255 240 1
w 256 255 -240 0
w 256 -255 240 1
w 256 -255 -240 0